p cnf 71 13
-15 24 2 42 -4 0
-40 3 6 -18 -53 0
63 28 19 -53 -52 0
-65 -15 70 -71 -3 0
28 2 -1 -70 40 0
-27 -6 47 -44 3 0
-18 -27 31 -3 -45 0
-9 27 2 -17 -56 0
2 68 62 42 -25 0
-37 -70 13 -4 16 0
49 -13 -3 1 -2 0
-59 33 -15 10 -4 0
17 7 16 18 -68 0
